PARAMETER_FILE = even/LKH_uncomplete_graph/x10/de/par/random133.par
PROBLEM_FILE = even/LKH_uncomplete_graph/x10/de/mat/random133.tsp
Successes/Runs = 0/10
Cost.min = 869, Cost.avg = 869.00, Cost.max = 869
Gap.min = 0.0000%, Gap.avg = 0.0000%, Gap.max = 0.0000%
Trials.min = 1000, Trials.avg = 1000.0, Trials.max = 1000
Time.min = 0.65 sec., Time.avg = 1.50 sec., Time.max = 1.94 sec.
Time.total = 15.08 sec.
请按任意键继续. . . 
